\ENCODING=ISO-8859-1
\Problem name: 

Minimize
 obj1: 2 x_1_2 + x_1_3 + 2 x_1_4 + 10 x_1_5 + x_1_6 + 2 x_1_7 + 2 x_1_8
       + 6 x_1_9 + 4 x_1_10 + 2 x_2_1 + x_2_3 + x_2_4 + x_2_5 + 6 x_2_6
       + 10 x_2_7 + 8 x_2_8 + 10 x_2_9 + 8 x_2_10 + x_3_1 + x_3_2 + 3 x_3_4
       + 2 x_3_5 + 3 x_3_6 + 2 x_3_7 + x_3_8 + 9 x_3_9 + 8 x_3_10 + 2 x_4_1
       + x_4_2 + 3 x_4_3 + 4 x_4_5 + 2 x_4_6 + 9 x_4_7 + 8 x_4_8 + 2 x_4_9
       + 10 x_4_10 + 10 x_5_1 + x_5_2 + 2 x_5_3 + 4 x_5_4 + 2 x_5_6 + 9 x_5_7
       + 10 x_5_8 + x_5_9 + 5 x_5_10 + x_6_1 + 6 x_6_2 + 3 x_6_3 + 2 x_6_4
       + 2 x_6_5 + 9 x_6_7 + 2 x_6_8 + 5 x_6_9 + 8 x_6_10 + 2 x_7_1 + 10 x_7_2
       + 2 x_7_3 + 9 x_7_4 + 9 x_7_5 + 9 x_7_6 + 6 x_7_8 + 5 x_7_9 + 4 x_7_10
       + 2 x_8_1 + 8 x_8_2 + x_8_3 + 8 x_8_4 + 10 x_8_5 + 2 x_8_6 + 6 x_8_7
       + 4 x_8_9 + 8 x_8_10 + 6 x_9_1 + 10 x_9_2 + 9 x_9_3 + 2 x_9_4 + x_9_5
       + 5 x_9_6 + 5 x_9_7 + 4 x_9_8 + 9 x_9_10 + 4 x_10_1 + 8 x_10_2
       + 8 x_10_3 + 10 x_10_4 + 5 x_10_5 + 8 x_10_6 + 4 x_10_7 + 8 x_10_8
       + 9 x_10_9 + 3 y_1_2 + 3 y_1_3 + 3 y_1_4 + 3 y_1_5 + 3 y_1_6 + 3 y_1_7
       + 3 y_1_8 + 3 y_1_9 + 3 y_1_10 + 3 y_2_1 + 3 y_2_3 + 3 y_2_4 + 3 y_2_5
       + 3 y_2_6 + 3 y_2_7 + 3 y_2_8 + 3 y_2_9 + 3 y_2_10 + 3 y_3_1 + 3 y_3_2
       + 3 y_3_4 + 3 y_3_5 + 3 y_3_6 + 3 y_3_7 + 3 y_3_8 + 3 y_3_9 + 3 y_3_10
       + 3 y_4_1 + 3 y_4_2 + 3 y_4_3 + 3 y_4_5 + 3 y_4_6 + 3 y_4_7 + 3 y_4_8
       + 3 y_4_9 + 3 y_4_10 + 3 y_5_1 + 3 y_5_2 + 3 y_5_3 + 3 y_5_4 + 3 y_5_6
       + 3 y_5_7 + 3 y_5_8 + 3 y_5_9 + 3 y_5_10 + 3 y_6_1 + 3 y_6_2 + 3 y_6_3
       + 3 y_6_4 + 3 y_6_5 + 3 y_6_7 + 3 y_6_8 + 3 y_6_9 + 3 y_6_10 + 3 y_7_1
       + 3 y_7_2 + 3 y_7_3 + 3 y_7_4 + 3 y_7_5 + 3 y_7_6 + 3 y_7_8 + 3 y_7_9
       + 3 y_7_10 + 3 y_8_1 + 3 y_8_2 + 3 y_8_3 + 3 y_8_4 + 3 y_8_5 + 3 y_8_6
       + 3 y_8_7 + 3 y_8_9 + 3 y_8_10 + 3 y_9_1 + 3 y_9_2 + 3 y_9_3 + 3 y_9_4
       + 3 y_9_5 + 3 y_9_6 + 3 y_9_7 + 3 y_9_8 + 3 y_9_10 + 3 y_10_1 + 3 y_10_2
       + 3 y_10_3 + 3 y_10_4 + 3 y_10_5 + 3 y_10_6 + 3 y_10_7 + 3 y_10_8
       + 3 y_10_9 + 0 u_1 + 0 u_2 + 0 u_3 + 0 u_4 + 0 u_5 + 0 u_6 + 0 u_7
       + 0 u_8 + 0 u_9 + 0 u_10
Subject To
 visito_1:                       x_2_1 + x_3_1 + x_4_1 + x_5_1 + x_6_1 + x_7_1
                                 + x_8_1 + x_9_1 + x_10_1 + y_2_1 + y_3_1
                                 + y_4_1 + y_5_1 + y_6_1 + y_7_1 + y_8_1
                                 + y_9_1 + y_10_1  = 1
 visito_2:                       x_1_2 + x_3_2 + x_4_2 + x_5_2 + x_6_2 + x_7_2
                                 + x_8_2 + x_9_2 + x_10_2 + y_1_2 + y_3_2
                                 + y_4_2 + y_5_2 + y_6_2 + y_7_2 + y_8_2
                                 + y_9_2 + y_10_2  = 1
 visito_3:                       x_1_3 + x_2_3 + x_4_3 + x_5_3 + x_6_3 + x_7_3
                                 + x_8_3 + x_9_3 + x_10_3 + y_1_3 + y_2_3
                                 + y_4_3 + y_5_3 + y_6_3 + y_7_3 + y_8_3
                                 + y_9_3 + y_10_3  = 1
 visito_4:                       x_1_4 + x_2_4 + x_3_4 + x_5_4 + x_6_4 + x_7_4
                                 + x_8_4 + x_9_4 + x_10_4 + y_1_4 + y_2_4
                                 + y_3_4 + y_5_4 + y_6_4 + y_7_4 + y_8_4
                                 + y_9_4 + y_10_4  = 1
 visito_5:                       x_1_5 + x_2_5 + x_3_5 + x_4_5 + x_6_5 + x_7_5
                                 + x_8_5 + x_9_5 + x_10_5 + y_1_5 + y_2_5
                                 + y_3_5 + y_4_5 + y_6_5 + y_7_5 + y_8_5
                                 + y_9_5 + y_10_5  = 1
 visito_6:                       x_1_6 + x_2_6 + x_3_6 + x_4_6 + x_5_6 + x_7_6
                                 + x_8_6 + x_9_6 + x_10_6 + y_1_6 + y_2_6
                                 + y_3_6 + y_4_6 + y_5_6 + y_7_6 + y_8_6
                                 + y_9_6 + y_10_6  = 1
 visito_7:                       x_1_7 + x_2_7 + x_3_7 + x_4_7 + x_5_7 + x_6_7
                                 + x_8_7 + x_9_7 + x_10_7 + y_1_7 + y_2_7
                                 + y_3_7 + y_4_7 + y_5_7 + y_6_7 + y_8_7
                                 + y_9_7 + y_10_7  = 1
 visito_8:                       x_1_8 + x_2_8 + x_3_8 + x_4_8 + x_5_8 + x_6_8
                                 + x_7_8 + x_9_8 + x_10_8 + y_1_8 + y_2_8
                                 + y_3_8 + y_4_8 + y_5_8 + y_6_8 + y_7_8
                                 + y_9_8 + y_10_8  = 1
 visito_9:                       x_1_9 + x_2_9 + x_3_9 + x_4_9 + x_5_9 + x_6_9
                                 + x_7_9 + x_8_9 + x_10_9 + y_1_9 + y_2_9
                                 + y_3_9 + y_4_9 + y_5_9 + y_6_9 + y_7_9
                                 + y_8_9 + y_10_9  = 1
 visito_10:                      x_1_10 + x_2_10 + x_3_10 + x_4_10 + x_5_10
                                 + x_6_10 + x_7_10 + x_8_10 + x_9_10 + y_1_10
                                 + y_2_10 + y_3_10 + y_4_10 + y_5_10 + y_6_10
                                 + y_7_10 + y_8_10 + y_9_10  = 1
 continuidad_1:                  - x_1_2 - x_1_3 - x_1_4 - x_1_5 - x_1_6
                                 - x_1_7 - x_1_8 - x_1_9 - x_1_10 + x_2_1
                                 + x_3_1 + x_4_1 + x_5_1 + x_6_1 + x_7_1
                                 + x_8_1 + x_9_1 + x_10_1  = 0
 continuidad_2:                  x_1_2 - x_2_1 - x_2_3 - x_2_4 - x_2_5 - x_2_6
                                 - x_2_7 - x_2_8 - x_2_9 - x_2_10 + x_3_2
                                 + x_4_2 + x_5_2 + x_6_2 + x_7_2 + x_8_2
                                 + x_9_2 + x_10_2  = 0
 continuidad_3:                  x_1_3 + x_2_3 - x_3_1 - x_3_2 - x_3_4 - x_3_5
                                 - x_3_6 - x_3_7 - x_3_8 - x_3_9 - x_3_10
                                 + x_4_3 + x_5_3 + x_6_3 + x_7_3 + x_8_3
                                 + x_9_3 + x_10_3  = 0
 continuidad_4:                  x_1_4 + x_2_4 + x_3_4 - x_4_1 - x_4_2 - x_4_3
                                 - x_4_5 - x_4_6 - x_4_7 - x_4_8 - x_4_9
                                 - x_4_10 + x_5_4 + x_6_4 + x_7_4 + x_8_4
                                 + x_9_4 + x_10_4  = 0
 continuidad_5:                  x_1_5 + x_2_5 + x_3_5 + x_4_5 - x_5_1 - x_5_2
                                 - x_5_3 - x_5_4 - x_5_6 - x_5_7 - x_5_8
                                 - x_5_9 - x_5_10 + x_6_5 + x_7_5 + x_8_5
                                 + x_9_5 + x_10_5  = 0
 continuidad_6:                  x_1_6 + x_2_6 + x_3_6 + x_4_6 + x_5_6 - x_6_1
                                 - x_6_2 - x_6_3 - x_6_4 - x_6_5 - x_6_7
                                 - x_6_8 - x_6_9 - x_6_10 + x_7_6 + x_8_6
                                 + x_9_6 + x_10_6  = 0
 continuidad_7:                  x_1_7 + x_2_7 + x_3_7 + x_4_7 + x_5_7 + x_6_7
                                 - x_7_1 - x_7_2 - x_7_3 - x_7_4 - x_7_5
                                 - x_7_6 - x_7_8 - x_7_9 - x_7_10 + x_8_7
                                 + x_9_7 + x_10_7  = 0
 continuidad_8:                  x_1_8 + x_2_8 + x_3_8 + x_4_8 + x_5_8 + x_6_8
                                 + x_7_8 - x_8_1 - x_8_2 - x_8_3 - x_8_4
                                 - x_8_5 - x_8_6 - x_8_7 - x_8_9 - x_8_10
                                 + x_9_8 + x_10_8  = 0
 continuidad_9:                  x_1_9 + x_2_9 + x_3_9 + x_4_9 + x_5_9 + x_6_9
                                 + x_7_9 + x_8_9 - x_9_1 - x_9_2 - x_9_3
                                 - x_9_4 - x_9_5 - x_9_6 - x_9_7 - x_9_8
                                 - x_9_10 + x_10_9  = 0
 continuidad_10:                 x_1_10 + x_2_10 + x_3_10 + x_4_10 + x_5_10
                                 + x_6_10 + x_7_10 + x_8_10 + x_9_10 - x_10_1
                                 - x_10_2 - x_10_3 - x_10_4 - x_10_5 - x_10_6
                                 - x_10_7 - x_10_8 - x_10_9  = 0
 distancia_1_2:                  2 y_1_2 <= 7
 distancia_1_3:                  y_1_3 <= 7
 distancia_1_4:                  2 y_1_4 <= 7
 distancia_1_5:                  10 y_1_5 <= 7
 distancia_1_6:                  y_1_6 <= 7
 distancia_1_7:                  2 y_1_7 <= 7
 distancia_1_8:                  2 y_1_8 <= 7
 distancia_1_9:                  6 y_1_9 <= 7
 distancia_1_10:                 4 y_1_10 <= 7
 distancia_2_1:                  2 y_2_1 <= 7
 distancia_2_3:                  y_2_3 <= 7
 distancia_2_4:                  y_2_4 <= 7
 distancia_2_5:                  y_2_5 <= 7
 distancia_2_6:                  6 y_2_6 <= 7
 distancia_2_7:                  10 y_2_7 <= 7
 distancia_2_8:                  8 y_2_8 <= 7
 distancia_2_9:                  10 y_2_9 <= 7
 distancia_2_10:                 8 y_2_10 <= 7
 distancia_3_1:                  y_3_1 <= 7
 distancia_3_2:                  y_3_2 <= 7
 distancia_3_4:                  3 y_3_4 <= 7
 distancia_3_5:                  2 y_3_5 <= 7
 distancia_3_6:                  3 y_3_6 <= 7
 distancia_3_7:                  2 y_3_7 <= 7
 distancia_3_8:                  y_3_8 <= 7
 distancia_3_9:                  9 y_3_9 <= 7
 distancia_3_10:                 8 y_3_10 <= 7
 distancia_4_1:                  2 y_4_1 <= 7
 distancia_4_2:                  y_4_2 <= 7
 distancia_4_3:                  3 y_4_3 <= 7
 distancia_4_5:                  4 y_4_5 <= 7
 distancia_4_6:                  2 y_4_6 <= 7
 distancia_4_7:                  9 y_4_7 <= 7
 distancia_4_8:                  8 y_4_8 <= 7
 distancia_4_9:                  2 y_4_9 <= 7
 distancia_4_10:                 10 y_4_10 <= 7
 distancia_5_1:                  10 y_5_1 <= 7
 distancia_5_2:                  y_5_2 <= 7
 distancia_5_3:                  2 y_5_3 <= 7
 distancia_5_4:                  4 y_5_4 <= 7
 distancia_5_6:                  2 y_5_6 <= 7
 distancia_5_7:                  9 y_5_7 <= 7
 distancia_5_8:                  10 y_5_8 <= 7
 distancia_5_9:                  y_5_9 <= 7
 distancia_5_10:                 5 y_5_10 <= 7
 distancia_6_1:                  y_6_1 <= 7
 distancia_6_2:                  6 y_6_2 <= 7
 distancia_6_3:                  3 y_6_3 <= 7
 distancia_6_4:                  2 y_6_4 <= 7
 distancia_6_5:                  2 y_6_5 <= 7
 distancia_6_7:                  9 y_6_7 <= 7
 distancia_6_8:                  2 y_6_8 <= 7
 distancia_6_9:                  5 y_6_9 <= 7
 distancia_6_10:                 8 y_6_10 <= 7
 distancia_7_1:                  2 y_7_1 <= 7
 distancia_7_2:                  10 y_7_2 <= 7
 distancia_7_3:                  2 y_7_3 <= 7
 distancia_7_4:                  9 y_7_4 <= 7
 distancia_7_5:                  9 y_7_5 <= 7
 distancia_7_6:                  9 y_7_6 <= 7
 distancia_7_8:                  6 y_7_8 <= 7
 distancia_7_9:                  5 y_7_9 <= 7
 distancia_7_10:                 4 y_7_10 <= 7
 distancia_8_1:                  2 y_8_1 <= 7
 distancia_8_2:                  8 y_8_2 <= 7
 distancia_8_3:                  y_8_3 <= 7
 distancia_8_4:                  8 y_8_4 <= 7
 distancia_8_5:                  10 y_8_5 <= 7
 distancia_8_6:                  2 y_8_6 <= 7
 distancia_8_7:                  6 y_8_7 <= 7
 distancia_8_9:                  4 y_8_9 <= 7
 distancia_8_10:                 8 y_8_10 <= 7
 distancia_9_1:                  6 y_9_1 <= 7
 distancia_9_2:                  10 y_9_2 <= 7
 distancia_9_3:                  9 y_9_3 <= 7
 distancia_9_4:                  2 y_9_4 <= 7
 distancia_9_5:                  y_9_5 <= 7
 distancia_9_6:                  5 y_9_6 <= 7
 distancia_9_7:                  5 y_9_7 <= 7
 distancia_9_8:                  4 y_9_8 <= 7
 distancia_9_10:                 9 y_9_10 <= 7
 distancia_10_1:                 4 y_10_1 <= 7
 distancia_10_2:                 8 y_10_2 <= 7
 distancia_10_3:                 8 y_10_3 <= 7
 distancia_10_4:                 10 y_10_4 <= 7
 distancia_10_5:                 5 y_10_5 <= 7
 distancia_10_6:                 8 y_10_6 <= 7
 distancia_10_7:                 4 y_10_7 <= 7
 distancia_10_8:                 8 y_10_8 <= 7
 distancia_10_9:                 9 y_10_9 <= 7
 refrigerados_1:                 y_1_10 - z_1 <= 0
 refrigerados_2:                 y_2_10 - z_2 <= 0
 refrigerados_3:                 y_3_10 - z_3 <= 0
 refrigerados_4:                 y_4_10 - z_4 <= 0
 refrigerados_5:                 y_5_10 - z_5 <= 0
 refrigerados_6:                 y_6_10 - z_6 <= 0
 refrigerados_7:                 y_7_10 - z_7 <= 0
 refrigerados_8:                 y_8_10 - z_8 <= 0
 refrigerados_9:                 y_9_10 - z_9 <= 0
 anti_activacion_z_1:            y_1_2 + y_1_3 + y_1_4 + y_1_5 + y_1_6 + y_1_7
                                 + y_1_8 + y_1_9 + y_1_10 - z_1 >= 0
 anti_activacion_z_2:            y_2_1 + y_2_3 + y_2_4 + y_2_5 + y_2_6 + y_2_7
                                 + y_2_8 + y_2_9 + y_2_10 - z_2 >= 0
 anti_activacion_z_3:            y_3_1 + y_3_2 + y_3_4 + y_3_5 + y_3_6 + y_3_7
                                 + y_3_8 + y_3_9 + y_3_10 - z_3 >= 0
 anti_activacion_z_4:            y_4_1 + y_4_2 + y_4_3 + y_4_5 + y_4_6 + y_4_7
                                 + y_4_8 + y_4_9 + y_4_10 - z_4 >= 0
 anti_activacion_z_5:            y_5_1 + y_5_2 + y_5_3 + y_5_4 + y_5_6 + y_5_7
                                 + y_5_8 + y_5_9 + y_5_10 - z_5 >= 0
 anti_activacion_z_6:            y_6_1 + y_6_2 + y_6_3 + y_6_4 + y_6_5 + y_6_7
                                 + y_6_8 + y_6_9 + y_6_10 - z_6 >= 0
 anti_activacion_z_7:            y_7_1 + y_7_2 + y_7_3 + y_7_4 + y_7_5 + y_7_6
                                 + y_7_8 + y_7_9 + y_7_10 - z_7 >= 0
 anti_activacion_z_8:            y_8_1 + y_8_2 + y_8_3 + y_8_4 + y_8_5 + y_8_6
                                 + y_8_7 + y_8_9 + y_8_10 - z_8 >= 0
 anti_activacion_z_9:            y_9_1 + y_9_2 + y_9_3 + y_9_4 + y_9_5 + y_9_6
                                 + y_9_7 + y_9_8 + y_9_10 - z_9 >= 0
 anti_activacion_z_10:           y_10_1 + y_10_2 + y_10_3 + y_10_4 + y_10_5
                                 + y_10_6 + y_10_7 + y_10_8 + y_10_9 - z_10
                                 >= 0
 activacion_z_1_2:               y_1_2 - z_1 <= 1
 activacion_z_1_3:               y_1_3 - z_1 <= 1
 activacion_z_1_4:               y_1_4 - z_1 <= 1
 activacion_z_1_5:               y_1_5 - z_1 <= 1
 activacion_z_1_6:               y_1_6 - z_1 <= 1
 activacion_z_1_7:               y_1_7 - z_1 <= 1
 activacion_z_1_8:               y_1_8 - z_1 <= 1
 activacion_z_1_9:               y_1_9 - z_1 <= 1
 activacion_z_1_10:              y_1_10 - z_1 <= 1
 activacion_z_2_1:               y_2_1 - z_2 <= 1
 activacion_z_2_3:               y_2_3 - z_2 <= 1
 activacion_z_2_4:               y_2_4 - z_2 <= 1
 activacion_z_2_5:               y_2_5 - z_2 <= 1
 activacion_z_2_6:               y_2_6 - z_2 <= 1
 activacion_z_2_7:               y_2_7 - z_2 <= 1
 activacion_z_2_8:               y_2_8 - z_2 <= 1
 activacion_z_2_9:               y_2_9 - z_2 <= 1
 activacion_z_2_10:              y_2_10 - z_2 <= 1
 activacion_z_3_1:               y_3_1 - z_3 <= 1
 activacion_z_3_2:               y_3_2 - z_3 <= 1
 activacion_z_3_4:               y_3_4 - z_3 <= 1
 activacion_z_3_5:               y_3_5 - z_3 <= 1
 activacion_z_3_6:               y_3_6 - z_3 <= 1
 activacion_z_3_7:               y_3_7 - z_3 <= 1
 activacion_z_3_8:               y_3_8 - z_3 <= 1
 activacion_z_3_9:               y_3_9 - z_3 <= 1
 activacion_z_3_10:              y_3_10 - z_3 <= 1
 activacion_z_4_1:               y_4_1 - z_4 <= 1
 activacion_z_4_2:               y_4_2 - z_4 <= 1
 activacion_z_4_3:               y_4_3 - z_4 <= 1
 activacion_z_4_5:               y_4_5 - z_4 <= 1
 activacion_z_4_6:               y_4_6 - z_4 <= 1
 activacion_z_4_7:               y_4_7 - z_4 <= 1
 activacion_z_4_8:               y_4_8 - z_4 <= 1
 activacion_z_4_9:               y_4_9 - z_4 <= 1
 activacion_z_4_10:              y_4_10 - z_4 <= 1
 activacion_z_5_1:               y_5_1 - z_5 <= 1
 activacion_z_5_2:               y_5_2 - z_5 <= 1
 activacion_z_5_3:               y_5_3 - z_5 <= 1
 activacion_z_5_4:               y_5_4 - z_5 <= 1
 activacion_z_5_6:               y_5_6 - z_5 <= 1
 activacion_z_5_7:               y_5_7 - z_5 <= 1
 activacion_z_5_8:               y_5_8 - z_5 <= 1
 activacion_z_5_9:               y_5_9 - z_5 <= 1
 activacion_z_5_10:              y_5_10 - z_5 <= 1
 activacion_z_6_1:               y_6_1 - z_6 <= 1
 activacion_z_6_2:               y_6_2 - z_6 <= 1
 activacion_z_6_3:               y_6_3 - z_6 <= 1
 activacion_z_6_4:               y_6_4 - z_6 <= 1
 activacion_z_6_5:               y_6_5 - z_6 <= 1
 activacion_z_6_7:               y_6_7 - z_6 <= 1
 activacion_z_6_8:               y_6_8 - z_6 <= 1
 activacion_z_6_9:               y_6_9 - z_6 <= 1
 activacion_z_6_10:              y_6_10 - z_6 <= 1
 activacion_z_7_1:               y_7_1 - z_7 <= 1
 activacion_z_7_2:               y_7_2 - z_7 <= 1
 activacion_z_7_3:               y_7_3 - z_7 <= 1
 activacion_z_7_4:               y_7_4 - z_7 <= 1
 activacion_z_7_5:               y_7_5 - z_7 <= 1
 activacion_z_7_6:               y_7_6 - z_7 <= 1
 activacion_z_7_8:               y_7_8 - z_7 <= 1
 activacion_z_7_9:               y_7_9 - z_7 <= 1
 activacion_z_7_10:              y_7_10 - z_7 <= 1
 activacion_z_8_1:               y_8_1 - z_8 <= 1
 activacion_z_8_2:               y_8_2 - z_8 <= 1
 activacion_z_8_3:               y_8_3 - z_8 <= 1
 activacion_z_8_4:               y_8_4 - z_8 <= 1
 activacion_z_8_5:               y_8_5 - z_8 <= 1
 activacion_z_8_6:               y_8_6 - z_8 <= 1
 activacion_z_8_7:               y_8_7 - z_8 <= 1
 activacion_z_8_9:               y_8_9 - z_8 <= 1
 activacion_z_8_10:              y_8_10 - z_8 <= 1
 activacion_z_9_1:               y_9_1 - z_9 <= 1
 activacion_z_9_2:               y_9_2 - z_9 <= 1
 activacion_z_9_3:               y_9_3 - z_9 <= 1
 activacion_z_9_4:               y_9_4 - z_9 <= 1
 activacion_z_9_5:               y_9_5 - z_9 <= 1
 activacion_z_9_6:               y_9_6 - z_9 <= 1
 activacion_z_9_7:               y_9_7 - z_9 <= 1
 activacion_z_9_8:               y_9_8 - z_9 <= 1
 activacion_z_9_10:              y_9_10 - z_9 <= 1
 activacion_z_10_1:              y_10_1 - z_10 <= 1
 activacion_z_10_2:              y_10_2 - z_10 <= 1
 activacion_z_10_3:              y_10_3 - z_10 <= 1
 activacion_z_10_4:              y_10_4 - z_10 <= 1
 activacion_z_10_5:              y_10_5 - z_10 <= 1
 activacion_z_10_6:              y_10_6 - z_10 <= 1
 activacion_z_10_7:              y_10_7 - z_10 <= 1
 activacion_z_10_8:              y_10_8 - z_10 <= 1
 activacion_z_10_9:              y_10_9 - z_10 <= 1
 no_repartidor_en_deposito_1_2:  y_1_2  = 0
 no_repartidor_en_deposito_2_1:  y_2_1  = 0
 no_repartidor_en_deposito_1_3:  y_1_3  = 0
 no_repartidor_en_deposito_3_1:  y_3_1  = 0
 no_repartidor_en_deposito_1_4:  y_1_4  = 0
 no_repartidor_en_deposito_4_1:  y_4_1  = 0
 no_repartidor_en_deposito_1_5:  y_1_5  = 0
 no_repartidor_en_deposito_5_1:  y_5_1  = 0
 no_repartidor_en_deposito_1_6:  y_1_6  = 0
 no_repartidor_en_deposito_6_1:  y_6_1  = 0
 no_repartidor_en_deposito_1_7:  y_1_7  = 0
 no_repartidor_en_deposito_7_1:  y_7_1  = 0
 no_repartidor_en_deposito_1_8:  y_1_8  = 0
 no_repartidor_en_deposito_8_1:  y_8_1  = 0
 no_repartidor_en_deposito_1_9:  y_1_9  = 0
 no_repartidor_en_deposito_9_1:  y_9_1  = 0
 no_repartidor_en_deposito_1_10: y_1_10  = 0
 no_repartidor_en_deposito_10_1: y_10_1  = 0
 activacion_z_x_1:               x_2_1 + x_3_1 + x_4_1 + x_5_1 + x_6_1 + x_7_1
                                 + x_8_1 + x_9_1 + x_10_1 - z_1 >= 0
 activacion_z_x_2:               x_1_2 + x_3_2 + x_4_2 + x_5_2 + x_6_2 + x_7_2
                                 + x_8_2 + x_9_2 + x_10_2 - z_2 >= 0
 activacion_z_x_3:               x_1_3 + x_2_3 + x_4_3 + x_5_3 + x_6_3 + x_7_3
                                 + x_8_3 + x_9_3 + x_10_3 - z_3 >= 0
 activacion_z_x_4:               x_1_4 + x_2_4 + x_3_4 + x_5_4 + x_6_4 + x_7_4
                                 + x_8_4 + x_9_4 + x_10_4 - z_4 >= 0
 activacion_z_x_5:               x_1_5 + x_2_5 + x_3_5 + x_4_5 + x_6_5 + x_7_5
                                 + x_8_5 + x_9_5 + x_10_5 - z_5 >= 0
 activacion_z_x_6:               x_1_6 + x_2_6 + x_3_6 + x_4_6 + x_5_6 + x_7_6
                                 + x_8_6 + x_9_6 + x_10_6 - z_6 >= 0
 activacion_z_x_7:               x_1_7 + x_2_7 + x_3_7 + x_4_7 + x_5_7 + x_6_7
                                 + x_8_7 + x_9_7 + x_10_7 - z_7 >= 0
 activacion_z_x_8:               x_1_8 + x_2_8 + x_3_8 + x_4_8 + x_5_8 + x_6_8
                                 + x_7_8 + x_9_8 + x_10_8 - z_8 >= 0
 activacion_z_x_9:               x_1_9 + x_2_9 + x_3_9 + x_4_9 + x_5_9 + x_6_9
                                 + x_7_9 + x_8_9 + x_10_9 - z_9 >= 0
 activacion_z_x_10:              x_1_10 + x_2_10 + x_3_10 + x_4_10 + x_5_10
                                 + x_6_10 + x_7_10 + x_8_10 + x_9_10 - z_10
                                 >= 0
Bounds
 0 <= x_1_2 <= 1
 0 <= x_1_3 <= 1
 0 <= x_1_4 <= 1
 0 <= x_1_5 <= 1
 0 <= x_1_6 <= 1
 0 <= x_1_7 <= 1
 0 <= x_1_8 <= 1
 0 <= x_1_9 <= 1
 0 <= x_1_10 <= 1
 0 <= x_2_1 <= 1
 0 <= x_2_3 <= 1
 0 <= x_2_4 <= 1
 0 <= x_2_5 <= 1
 0 <= x_2_6 <= 1
 0 <= x_2_7 <= 1
 0 <= x_2_8 <= 1
 0 <= x_2_9 <= 1
 0 <= x_2_10 <= 1
 0 <= x_3_1 <= 1
 0 <= x_3_2 <= 1
 0 <= x_3_4 <= 1
 0 <= x_3_5 <= 1
 0 <= x_3_6 <= 1
 0 <= x_3_7 <= 1
 0 <= x_3_8 <= 1
 0 <= x_3_9 <= 1
 0 <= x_3_10 <= 1
 0 <= x_4_1 <= 1
 0 <= x_4_2 <= 1
 0 <= x_4_3 <= 1
 0 <= x_4_5 <= 1
 0 <= x_4_6 <= 1
 0 <= x_4_7 <= 1
 0 <= x_4_8 <= 1
 0 <= x_4_9 <= 1
 0 <= x_4_10 <= 1
 0 <= x_5_1 <= 1
 0 <= x_5_2 <= 1
 0 <= x_5_3 <= 1
 0 <= x_5_4 <= 1
 0 <= x_5_6 <= 1
 0 <= x_5_7 <= 1
 0 <= x_5_8 <= 1
 0 <= x_5_9 <= 1
 0 <= x_5_10 <= 1
 0 <= x_6_1 <= 1
 0 <= x_6_2 <= 1
 0 <= x_6_3 <= 1
 0 <= x_6_4 <= 1
 0 <= x_6_5 <= 1
 0 <= x_6_7 <= 1
 0 <= x_6_8 <= 1
 0 <= x_6_9 <= 1
 0 <= x_6_10 <= 1
 0 <= x_7_1 <= 1
 0 <= x_7_2 <= 1
 0 <= x_7_3 <= 1
 0 <= x_7_4 <= 1
 0 <= x_7_5 <= 1
 0 <= x_7_6 <= 1
 0 <= x_7_8 <= 1
 0 <= x_7_9 <= 1
 0 <= x_7_10 <= 1
 0 <= x_8_1 <= 1
 0 <= x_8_2 <= 1
 0 <= x_8_3 <= 1
 0 <= x_8_4 <= 1
 0 <= x_8_5 <= 1
 0 <= x_8_6 <= 1
 0 <= x_8_7 <= 1
 0 <= x_8_9 <= 1
 0 <= x_8_10 <= 1
 0 <= x_9_1 <= 1
 0 <= x_9_2 <= 1
 0 <= x_9_3 <= 1
 0 <= x_9_4 <= 1
 0 <= x_9_5 <= 1
 0 <= x_9_6 <= 1
 0 <= x_9_7 <= 1
 0 <= x_9_8 <= 1
 0 <= x_9_10 <= 1
 0 <= x_10_1 <= 1
 0 <= x_10_2 <= 1
 0 <= x_10_3 <= 1
 0 <= x_10_4 <= 1
 0 <= x_10_5 <= 1
 0 <= x_10_6 <= 1
 0 <= x_10_7 <= 1
 0 <= x_10_8 <= 1
 0 <= x_10_9 <= 1
 0 <= y_1_2 <= 1
 0 <= y_1_3 <= 1
 0 <= y_1_4 <= 1
 0 <= y_1_5 <= 1
 0 <= y_1_6 <= 1
 0 <= y_1_7 <= 1
 0 <= y_1_8 <= 1
 0 <= y_1_9 <= 1
 0 <= y_1_10 <= 1
 0 <= y_2_1 <= 1
 0 <= y_2_3 <= 1
 0 <= y_2_4 <= 1
 0 <= y_2_5 <= 1
 0 <= y_2_6 <= 1
 0 <= y_2_7 <= 1
 0 <= y_2_8 <= 1
 0 <= y_2_9 <= 1
 0 <= y_2_10 <= 1
 0 <= y_3_1 <= 1
 0 <= y_3_2 <= 1
 0 <= y_3_4 <= 1
 0 <= y_3_5 <= 1
 0 <= y_3_6 <= 1
 0 <= y_3_7 <= 1
 0 <= y_3_8 <= 1
 0 <= y_3_9 <= 1
 0 <= y_3_10 <= 1
 0 <= y_4_1 <= 1
 0 <= y_4_2 <= 1
 0 <= y_4_3 <= 1
 0 <= y_4_5 <= 1
 0 <= y_4_6 <= 1
 0 <= y_4_7 <= 1
 0 <= y_4_8 <= 1
 0 <= y_4_9 <= 1
 0 <= y_4_10 <= 1
 0 <= y_5_1 <= 1
 0 <= y_5_2 <= 1
 0 <= y_5_3 <= 1
 0 <= y_5_4 <= 1
 0 <= y_5_6 <= 1
 0 <= y_5_7 <= 1
 0 <= y_5_8 <= 1
 0 <= y_5_9 <= 1
 0 <= y_5_10 <= 1
 0 <= y_6_1 <= 1
 0 <= y_6_2 <= 1
 0 <= y_6_3 <= 1
 0 <= y_6_4 <= 1
 0 <= y_6_5 <= 1
 0 <= y_6_7 <= 1
 0 <= y_6_8 <= 1
 0 <= y_6_9 <= 1
 0 <= y_6_10 <= 1
 0 <= y_7_1 <= 1
 0 <= y_7_2 <= 1
 0 <= y_7_3 <= 1
 0 <= y_7_4 <= 1
 0 <= y_7_5 <= 1
 0 <= y_7_6 <= 1
 0 <= y_7_8 <= 1
 0 <= y_7_9 <= 1
 0 <= y_7_10 <= 1
 0 <= y_8_1 <= 1
 0 <= y_8_2 <= 1
 0 <= y_8_3 <= 1
 0 <= y_8_4 <= 1
 0 <= y_8_5 <= 1
 0 <= y_8_6 <= 1
 0 <= y_8_7 <= 1
 0 <= y_8_9 <= 1
 0 <= y_8_10 <= 1
 0 <= y_9_1 <= 1
 0 <= y_9_2 <= 1
 0 <= y_9_3 <= 1
 0 <= y_9_4 <= 1
 0 <= y_9_5 <= 1
 0 <= y_9_6 <= 1
 0 <= y_9_7 <= 1
 0 <= y_9_8 <= 1
 0 <= y_9_10 <= 1
 0 <= y_10_1 <= 1
 0 <= y_10_2 <= 1
 0 <= y_10_3 <= 1
 0 <= y_10_4 <= 1
 0 <= y_10_5 <= 1
 0 <= y_10_6 <= 1
 0 <= y_10_7 <= 1
 0 <= y_10_8 <= 1
 0 <= y_10_9 <= 1
 1 <= u_1 <= 10
 2 <= u_2 <= 10
 2 <= u_3 <= 10
 2 <= u_4 <= 10
 2 <= u_5 <= 10
 2 <= u_6 <= 10
 2 <= u_7 <= 10
 2 <= u_8 <= 10
 2 <= u_9 <= 10
 2 <= u_10 <= 10
 0 <= z_1 <= 1
 0 <= z_2 <= 1
 0 <= z_3 <= 1
 0 <= z_4 <= 1
 0 <= z_5 <= 1
 0 <= z_6 <= 1
 0 <= z_7 <= 1
 0 <= z_8 <= 1
 0 <= z_9 <= 1
 0 <= z_10 <= 1
Binaries
 x_1_2  x_1_3  x_1_4  x_1_5  x_1_6  x_1_7  x_1_8  x_1_9  x_1_10  x_2_1  x_2_3 
 x_2_4  x_2_5  x_2_6  x_2_7  x_2_8  x_2_9  x_2_10  x_3_1  x_3_2  x_3_4  x_3_5 
 x_3_6  x_3_7  x_3_8  x_3_9  x_3_10  x_4_1  x_4_2  x_4_3  x_4_5  x_4_6  x_4_7 
 x_4_8  x_4_9  x_4_10  x_5_1  x_5_2  x_5_3  x_5_4  x_5_6  x_5_7  x_5_8  x_5_9 
 x_5_10  x_6_1  x_6_2  x_6_3  x_6_4  x_6_5  x_6_7  x_6_8  x_6_9  x_6_10  x_7_1 
 x_7_2  x_7_3  x_7_4  x_7_5  x_7_6  x_7_8  x_7_9  x_7_10  x_8_1  x_8_2  x_8_3 
 x_8_4  x_8_5  x_8_6  x_8_7  x_8_9  x_8_10  x_9_1  x_9_2  x_9_3  x_9_4  x_9_5 
 x_9_6  x_9_7  x_9_8  x_9_10  x_10_1  x_10_2  x_10_3  x_10_4  x_10_5  x_10_6 
 x_10_7  x_10_8  x_10_9  y_1_2  y_1_3  y_1_4  y_1_5  y_1_6  y_1_7  y_1_8 
 y_1_9  y_1_10  y_2_1  y_2_3  y_2_4  y_2_5  y_2_6  y_2_7  y_2_8  y_2_9  y_2_10 
 y_3_1  y_3_2  y_3_4  y_3_5  y_3_6  y_3_7  y_3_8  y_3_9  y_3_10  y_4_1  y_4_2 
 y_4_3  y_4_5  y_4_6  y_4_7  y_4_8  y_4_9  y_4_10  y_5_1  y_5_2  y_5_3  y_5_4 
 y_5_6  y_5_7  y_5_8  y_5_9  y_5_10  y_6_1  y_6_2  y_6_3  y_6_4  y_6_5  y_6_7 
 y_6_8  y_6_9  y_6_10  y_7_1  y_7_2  y_7_3  y_7_4  y_7_5  y_7_6  y_7_8  y_7_9 
 y_7_10  y_8_1  y_8_2  y_8_3  y_8_4  y_8_5  y_8_6  y_8_7  y_8_9  y_8_10  y_9_1 
 y_9_2  y_9_3  y_9_4  y_9_5  y_9_6  y_9_7  y_9_8  y_9_10  y_10_1  y_10_2 
 y_10_3  y_10_4  y_10_5  y_10_6  y_10_7  y_10_8  y_10_9  z_1  z_2  z_3  z_4 
 z_5  z_6  z_7  z_8  z_9  z_10 
Generals
 u_1  u_2  u_3  u_4  u_5  u_6  u_7  u_8  u_9  u_10 
End
